! To optimize the structure
%mem=24GB
%chk=optim.chk
#p UB3LYP/6-31+G(2df,p) opt=(CalcAll,maxcycle=200,maxstep=10,maxEstep=300) scrf=(pcm,solvent=Water) pop=reg freq nmr

Structure of w_P2S9_q2m_end2S3Sasym

-2  1
P -2.078338 0.594604 0.066987
P 0.700407 0.180951 0.589858
S -1.051817 -0.202184 1.787976
S -0.332769 0.897975 -1.164255
S 2.041252 1.585507 1.537900
S 2.964292 2.123488 -0.304490
S 1.435949 -1.387073 0.235402
S -3.051060 -0.718525 -0.607585
S -3.216794 2.366509 0.543764
S -3.359583 2.947958 -1.499215
S 4.544642 0.726354 -0.020900

