! To optimize the structure
%mem=24GB
%chk=optim.chk
#p UB3LYP/6-31+G(2df,p) opt=(CalcAll,maxcycle=200,maxstep=10,maxEstep=300) scrf=(pcm,solvent=Water) pop=reg freq nmr

Structure of s_P2S8Na2_q0_cis

0  1
P -4.095532 1.745826 -0.085943
P -1.253503 2.021541 -0.178757
S -2.727646 2.863526 1.153490
S -2.613338 0.838250 -1.363193
S -5.529177 2.915193 -1.199743
S -4.822141 0.446573 0.867573
S -0.146123 3.436544 -1.376763
S -0.231280 0.891793 0.717806
Na 2.804905 2.312493 0.358745
S -6.158190 3.981039 0.532498
S 0.364690 4.624735 0.314256
Na -8.984894 2.469416 -0.515103

