! To optimize the structure
%mem=24GB
%chk=optim.chk
#p UB3LYP/6-31+G(2df,p) opt=(CalcAll,maxcycle=200,maxstep=10,maxEstep=300) scrf=(pcm,solvent=DiEthylEther) pop=reg freq nmr

Structure of t_P2S8Na2_qm1_1sodium

-1  1
P -4.178509 1.754136 -0.103582
P -1.330524 1.975187 -0.127831
S -2.819702 2.843794 1.170196
S -2.684079 0.821276 -1.347816
S -5.563447 2.951352 -1.248872
S -4.951099 0.466089 0.828975
S -0.166270 3.369646 -1.295521
S -0.353167 0.823192 0.790382
Na 2.716339 2.152889 0.467970
S -6.230770 4.009800 0.473540
S 0.333673 4.539719 0.411293

