! To optimize the structure
%mem=24GB
%chk=optim.chk
#p UB3LYP/6-31+G(2df,p) opt=(CalcAll,maxcycle=200,maxstep=10,maxEstep=300) scrf=(pcm,solvent=THF) pop=reg freq nmr

Structure of x3_P2S9Na2_q0_end2S3Sasym

0  1
P -2.175246 0.441512 0.397438
P 0.626444 0.141615 -0.078925
S -0.605127 -0.415210 1.602103
S -0.959066 0.920772 -1.318992
S 2.171051 1.547296 0.475882
S 2.392303 2.266352 -1.516568
S 1.240424 -1.356972 -0.787854
S -3.283184 -0.872307 -0.017135
S -2.753568 2.070033 0.854963
S -4.706311 1.171339 1.765830
S 4.010307 0.940350 -1.908290
Na 5.458520 0.097217 -2.703902
Na -6.198437 0.471360 2.458357

