! To optimize the structure
%mem=24GB
%chk=optim.chk
#p UB3LYP/6-31+G(2df,p) opt=(CalcAll,maxcycle=200,maxstep=10,maxEstep=300) scrf=(pcm,solvent=Water) pop=reg freq nmr

Structure of x_P2S9Na2_q0_end2S3Sasym

0  1
P -2.175246 0.441512 0.397438
P 0.626444 0.141615 -0.078925
S -0.605127 -0.415210 1.602103
S -0.959066 0.920772 -1.318992
S 2.171051 1.547296 0.475882
S 2.392303 2.266352 -1.516568
S 1.240424 -1.356972 -0.787854
S -3.283184 -0.872307 -0.017135
S -3.132302 2.113731 1.372508
S -3.974591 2.824377 -0.448929
S 4.010307 0.940350 -1.908290
Na 6.549950 -1.019221 -0.743528
Na -5.704272 5.250123 -2.150653

