! To optimize the structure
%mem=24GB
%chk=optim.chk
#p UB3LYP/6-31+G(2df,p) opt=(CalcAll,maxcycle=200,maxstep=10,maxEstep=300) scrf=(pcm,solvent=Water) pop=reg freq nmr

Structure of t1_P2S8Na1_qm1_1sodium

-1  1
P -4.336907 1.605943 -0.176790
P -1.507688 1.929115 0.048672
S -3.141353 2.850037 1.116769
S -2.701147 0.624976 -1.186493
S -5.660378 2.766014 -1.428070
S -5.172325 0.440366 0.857182
S -0.275719 3.259006 -1.124672
S -0.591430 0.896109 1.152734
Na 0.244013 3.277552 1.570628
S -5.976905 1.144770 -2.771056
S 0.050860 4.571813 0.519093

