! To optimize the structure
%mem=24GB
%chk=optim.chk
#p UB3LYP/6-31+G(2df,p) opt=(CalcAll,maxcycle=200,maxstep=10,maxEstep=300) scrf=(pcm,solvent=DiEthylEther) pop=reg freq nmr

Structure of v_P2S10_q2m_endS3sym

-2  1
P -2.089635 0.573146 0.068242
P 0.693224 0.179114 0.590717
S -1.055387 -0.206009 1.792907
S -0.346371 0.876707 -1.166975
S 2.026008 1.599103 1.527027
S 2.941772 2.131502 -0.320602
S 1.438114 -1.386822 0.246759
S -3.054286 -0.750730 -0.596679
S -3.234849 2.344003 0.539313
S -3.254339 3.008836 -1.483907
S -5.152368 2.117953 -1.849579
S 4.531931 0.746715 -0.031360

